70
1908
7
23
14
15
57
49
57
45
0 1
0 2
0 3
0 4
0 5
0 6
0 7
0 8
0 9
0 10
0 15
0 16
0 17
0 19
0 20
0 21
0 22
0 23
0 24
0 25
0 26
0 27
0 28
0 29
0 32
0 33
0 34
0 35
0 36
0 37
0 38
0 39
0 40
0 41
0 42
0 43
0 45
0 46
0 47
0 50
0 51
0 52
0 54
0 55
0 57
0 58
0 59
0 60
0 61
0 62
0 63
0 64
0 65
0 66
0 67
0 68
1 2
1 3
1 7
1 8
1 11
1 12
1 13
1 14
1 15
1 16
1 17
1 18
1 20
1 22
1 23
1 24
1 25
1 26
1 28
1 29
1 31
1 32
1 33
1 34
1 35
1 36
1 37
1 39
1 40
1 41
1 42
1 43
1 45
1 47
1 49
1 50
1 51
1 53
1 54
1 55
1 57
1 58
1 59
1 60
1 61
1 62
1 65
1 66
1 67
1 68
1 69
2 3
2 4
2 5
2 6
2 7
2 8
2 9
2 10
2 11
2 12
2 13
2 14
2 15
2 16
2 17
2 18
2 19
2 20
2 22
2 23
2 24
2 25
2 26
2 27
2 29
2 30
2 31
2 32
2 33
2 34
2 35
2 36
2 37
2 38
2 39
2 40
2 41
2 42
2 43
2 44
2 45
2 46
2 47
2 48
2 49
2 51
2 52
2 53
2 54
2 55
2 57
2 59
2 60
2 61
2 62
2 63
2 65
2 66
2 67
2 68
3 4
3 5
3 6
3 7
3 8
3 9
3 10
3 11
3 12
3 13
3 14
3 16
3 17
3 18
3 19
3 20
3 21
3 26
3 27
3 28
3 29
3 30
3 32
3 33
3 35
3 36
3 38
3 39
3 40
3 42
3 43
3 44
3 45
3 46
3 47
3 49
3 50
3 51
3 53
3 54
3 55
3 56
3 57
3 58
3 59
3 61
3 62
3 63
3 64
3 65
3 66
3 67
3 68
4 5
4 6
4 7
4 8
4 9
4 10
4 11
4 12
4 13
4 14
4 15
4 17
4 19
4 20
4 21
4 23
4 25
4 26
4 27
4 28
4 29
4 30
4 31
4 32
4 33
4 34
4 35
4 36
4 37
4 40
4 41
4 42
4 44
4 46
4 47
4 48
4 49
4 50
4 51
4 52
4 54
4 55
4 56
4 58
4 59
4 60
4 61
4 62
4 63
4 64
4 65
4 66
4 67
4 68
4 69
5 6
5 7
5 8
5 9
5 10
5 11
5 12
5 13
5 16
5 17
5 18
5 19
5 21
5 25
5 26
5 27
5 28
5 29
5 30
5 31
5 34
5 36
5 37
5 38
5 39
5 40
5 41
5 42
5 43
5 44
5 45
5 46
5 47
5 48
5 49
5 52
5 53
5 55
5 57
5 58
5 59
5 61
5 62
5 64
5 65
5 66
5 68
5 69
6 7
6 8
6 9
6 10
6 11
6 12
6 13
6 14
6 16
6 18
6 19
6 20
6 21
6 22
6 23
6 24
6 26
6 28
6 30
6 31
6 33
6 35
6 39
6 40
6 41
6 45
6 46
6 47
6 48
6 49
6 50
6 51
6 52
6 53
6 54
6 55
6 56
6 57
6 58
6 60
6 61
6 62
6 63
6 64
6 66
6 68
6 69
7 9
7 10
7 12
7 13
7 14
7 15
7 16
7 17
7 18
7 19
7 20
7 21
7 22
7 24
7 25
7 26
7 28
7 29
7 30
7 31
7 32
7 33
7 34
7 35
7 37
7 38
7 39
7 40
7 41
7 42
7 43
7 44
7 45
7 46
7 47
7 48
7 49
7 50
7 51
7 52
7 53
7 55
7 56
7 57
7 60
7 61
7 62
7 63
7 64
7 65
7 66
7 68
7 69
8 9
8 10
8 11
8 12
8 13
8 14
8 15
8 16
8 17
8 18
8 19
8 20
8 21
8 22
8 23
8 24
8 25
8 26
8 27
8 28
8 29
8 30
8 32
8 34
8 35
8 36
8 37
8 38
8 39
8 40
8 41
8 42
8 43
8 44
8 45
8 46
8 47
8 48
8 50
8 52
8 54
8 56
8 57
8 58
8 60
8 61
8 62
8 63
8 64
8 67
8 68
8 69
9 10
9 11
9 12
9 14
9 15
9 16
9 17
9 18
9 19
9 20
9 22
9 24
9 25
9 26
9 27
9 29
9 30
9 31
9 32
9 34
9 35
9 36
9 37
9 38
9 39
9 42
9 43
9 44
9 45
9 46
9 47
9 49
9 50
9 51
9 53
9 55
9 56
9 57
9 58
9 59
9 60
9 61
9 63
9 64
9 65
9 66
9 67
9 68
9 69
10 11
10 12
10 13
10 14
10 16
10 20
10 21
10 22
10 24
10 26
10 27
10 28
10 29
10 30
10 31
10 32
10 33
10 36
10 37
10 38
10 40
10 41
10 42
10 44
10 45
10 46
10 47
10 48
10 49
10 51
10 52
10 54
10 55
10 57
10 59
10 60
10 61
10 62
10 63
10 64
10 65
10 66
10 67
10 68
11 12
11 13
11 15
11 16
11 17
11 19
11 20
11 21
11 22
11 23
11 24
11 25
11 27
11 28
11 30
11 31
11 32
11 34
11 35
11 36
11 38
11 39
11 40
11 41
11 44
11 45
11 46
11 47
11 49
11 50
11 51
11 52
11 53
11 55
11 57
11 58
11 62
11 63
11 65
11 68
11 69
12 17
12 19
12 22
12 23
12 24
12 26
12 27
12 28
12 29
12 30
12 31
12 32
12 33
12 34
12 35
12 36
12 37
12 38
12 39
12 40
12 41
12 43
12 44
12 45
12 46
12 48
12 49
12 50
12 51
12 52
12 54
12 55
12 56
12 57
12 58
12 59
12 60
12 62
12 63
12 64
12 65
12 66
12 67
12 68
12 69
13 14
13 16
13 17
13 18
13 19
13 20
13 21
13 23
13 26
13 27
13 28
13 29
13 30
13 31
13 32
13 33
13 34
13 35
13 36
13 37
13 38
13 40
13 43
13 44
13 45
13 46
13 48
13 49
13 50
13 51
13 52
13 53
13 54
13 55
13 57
13 59
13 60
13 61
13 62
13 64
13 65
13 66
13 67
13 68
13 69
14 15
14 16
14 17
14 18
14 19
14 20
14 21
14 22
14 24
14 26
14 29
14 30
14 32
14 33
14 34
14 36
14 37
14 38
14 39
14 40
14 41
14 42
14 43
14 44
14 45
14 47
14 49
14 51
14 53
14 54
14 55
14 56
14 57
14 58
14 59
14 60
14 61
14 62
14 63
14 64
14 65
14 66
14 69
15 16
15 17
15 18
15 19
15 20
15 22
15 24
15 25
15 27
15 28
15 29
15 30
15 31
15 32
15 34
15 35
15 37
15 38
15 40
15 41
15 44
15 45
15 47
15 48
15 49
15 51
15 52
15 53
15 54
15 55
15 56
15 57
15 60
15 61
15 62
15 63
15 64
15 66
15 68
16 20
16 21
16 23
16 25
16 27
16 28
16 29
16 31
16 32
16 34
16 35
16 36
16 38
16 39
16 40
16 41
16 42
16 43
16 44
16 46
16 48
16 51
16 52
16 53
16 54
16 55
16 57
16 58
16 59
16 60
16 61
16 63
16 64
16 65
16 66
16 67
16 68
16 69
17 18
17 19
17 20
17 21
17 22
17 23
17 24
17 27
17 28
17 29
17 30
17 31
17 32
17 33
17 34
17 35
17 36
17 37
17 38
17 39
17 40
17 41
17 42
17 45
17 47
17 49
17 50
17 51
17 55
17 58
17 60
17 61
17 64
17 65
17 66
17 68
17 69
18 19
18 20
18 21
18 22
18 24
18 25
18 26
18 27
18 28
18 29
18 30
18 31
18 32
18 33
18 34
18 35
18 37
18 38
18 39
18 40
18 41
18 42
18 45
18 46
18 47
18 48
18 50
18 51
18 52
18 53
18 54
18 55
18 56
18 57
18 58
18 59
18 60
18 61
18 63
18 64
18 65
18 66
18 67
18 68
19 20
19 22
19 23
19 24
19 25
19 26
19 28
19 29
19 30
19 32
19 33
19 34
19 35
19 36
19 37
19 38
19 39
19 40
19 41
19 42
19 43
19 44
19 45
19 47
19 48
19 49
19 50
19 51
19 52
19 53
19 54
19 55
19 56
19 58
19 59
19 60
19 61
19 62
19 63
19 64
19 66
19 68
20 21
20 23
20 24
20 25
20 26
20 27
20 28
20 29
20 31
20 32
20 33
20 34
20 36
20 37
20 38
20 39
20 41
20 43
20 44
20 45
20 46
20 47
20 49
20 50
20 51
20 52
20 53
20 54
20 55
20 56
20 57
20 58
20 60
20 61
20 62
20 64
20 65
20 67
20 68
21 22
21 23
21 24
21 25
21 26
21 27
21 28
21 29
21 30
21 31
21 32
21 33
21 36
21 37
21 38
21 39
21 40
21 41
21 42
21 43
21 44
21 45
21 47
21 49
21 51
21 52
21 53
21 54
21 57
21 58
21 59
21 60
21 61
21 62
21 64
21 66
21 67
21 68
22 23
22 25
22 26
22 27
22 28
22 29
22 30
22 31
22 34
22 35
22 36
22 37
22 40
22 41
22 42
22 43
22 44
22 45
22 46
22 47
22 49
22 50
22 51
22 53
22 54
22 55
22 56
22 57
22 58
22 59
22 60
22 62
22 63
22 65
22 66
22 67
22 69
23 24
23 26
23 27
23 29
23 30
23 31
23 32
23 33
23 34
23 36
23 37
23 38
23 39
23 42
23 43
23 44
23 48
23 50
23 52
23 54
23 55
23 58
23 59
23 60
23 62
23 63
23 65
23 67
23 68
23 69
24 25
24 26
24 27
24 29
24 30
24 31
24 32
24 33
24 34
24 36
24 40
24 41
24 43
24 44
24 45
24 46
24 47
24 48
24 49
24 50
24 51
24 52
24 54
24 55
24 56
24 57
24 60
24 61
24 62
24 63
24 64
24 65
24 66
24 67
24 68
24 69
25 26
25 28
25 29
25 30
25 31
25 32
25 33
25 34
25 35
25 36
25 37
25 38
25 39
25 40
25 41
25 42
25 43
25 44
25 45
25 46
25 47
25 48
25 49
25 50
25 51
25 53
25 54
25 55
25 56
25 57
25 59
25 60
25 61
25 62
25 64
25 65
25 66
25 67
25 68
26 27
26 28
26 29
26 30
26 31
26 32
26 33
26 35
26 37
26 38
26 39
26 40
26 42
26 43
26 44
26 45
26 46
26 48
26 49
26 50
26 51
26 52
26 53
26 54
26 56
26 58
26 59
26 60
26 61
26 62
26 63
26 64
26 65
26 67
26 69
27 28
27 29
27 30
27 31
27 34
27 35
27 37
27 38
27 39
27 40
27 41
27 44
27 45
27 47
27 48
27 50
27 51
27 52
27 53
27 54
27 55
27 56
27 57
27 58
27 59
27 60
27 61
27 62
27 63
27 65
27 66
27 67
27 68
27 69
28 29
28 30
28 31
28 32
28 33
28 34
28 35
28 36
28 37
28 38
28 39
28 40
28 41
28 42
28 43
28 44
28 46
28 47
28 48
28 49
28 51
28 52
28 54
28 55
28 56
28 57
28 58
28 59
28 60
28 61
28 62
28 63
28 64
28 65
28 66
28 67
28 69
29 30
29 32
29 34
29 35
29 37
29 38
29 40
29 41
29 42
29 43
29 44
29 45
29 46
29 47
29 48
29 49
29 50
29 51
29 52
29 53
29 54
29 55
29 56
29 57
29 58
29 59
29 60
29 61
29 62
29 63
29 64
29 65
29 66
29 68
29 69
30 31
30 32
30 34
30 35
30 36
30 38
30 39
30 40
30 41
30 42
30 43
30 44
30 46
30 47
30 48
30 49
30 50
30 51
30 53
30 57
30 58
30 59
30 60
30 62
30 64
30 65
30 66
30 67
30 68
30 69
31 32
31 33
31 34
31 35
31 36
31 37
31 38
31 39
31 40
31 42
31 43
31 44
31 45
31 47
31 48
31 49
31 50
31 51
31 52
31 54
31 55
31 56
31 57
31 58
31 59
31 60
31 61
31 62
31 63
31 64
31 66
31 67
31 69
32 34
32 35
32 36
32 37
32 38
32 39
32 40
32 42
32 43
32 45
32 46
32 47
32 48
32 49
32 50
32 52
32 53
32 54
32 58
32 59
32 60
32 62
32 63
32 64
32 65
32 66
32 67
32 68
32 69
33 34
33 35
33 38
33 40
33 41
33 42
33 44
33 45
33 47
33 48
33 49
33 51
33 52
33 54
33 56
33 57
33 58
33 60
33 61
33 62
33 64
33 65
33 67
33 68
33 69
34 35
34 38
34 39
34 40
34 41
34 42
34 43
34 44
34 45
34 46
34 47
34 48
34 50
34 51
34 52
34 53
34 54
34 55
34 56
34 57
34 58
34 59
34 60
34 61
34 62
34 63
34 64
34 67
34 68
35 36
35 37
35 38
35 39
35 40
35 42
35 43
35 44
35 45
35 46
35 48
35 49
35 50
35 51
35 53
35 55
35 56
35 57
35 58
35 59
35 60
35 62
35 63
35 65
35 66
35 67
35 68
36 37
36 39
36 42
36 43
36 44
36 45
36 46
36 47
36 49
36 51
36 52
36 53
36 54
36 55
36 56
36 57
36 58
36 59
36 61
36 62
36 64
36 65
36 66
36 67
36 68
36 69
37 38
37 40
37 41
37 43
37 49
37 50
37 52
37 54
37 55
37 56
37 57
37 58
37 59
37 60
37 61
37 62
37 63
37 67
37 68
38 39
38 40
38 41
38 44
38 45
38 46
38 47
38 48
38 50
38 51
38 52
38 53
38 57
38 58
38 59
38 60
38 62
38 63
38 64
38 66
38 67
38 69
39 41
39 42
39 44
39 45
39 47
39 48
39 49
39 50
39 51
39 53
39 54
39 55
39 56
39 57
39 59
39 60
39 61
39 62
39 65
39 66
39 67
39 69
40 41
40 42
40 43
40 44
40 45
40 46
40 47
40 48
40 49
40 50
40 51
40 52
40 53
40 54
40 55
40 57
40 58
40 59
40 60
40 61
40 62
40 63
40 64
40 66
40 67
40 68
40 69
41 43
41 45
41 47
41 48
41 49
41 50
41 51
41 52
41 53
41 55
41 56
41 57
41 58
41 59
41 60
41 62
41 63
41 64
41 65
41 66
41 67
41 68
41 69
42 43
42 44
42 46
42 47
42 49
42 50
42 51
42 52
42 53
42 55
42 56
42 58
42 59
42 62
42 63
42 65
42 66
42 67
42 68
42 69
43 44
43 45
43 48
43 50
43 51
43 53
43 54
43 55
43 56
43 57
43 58
43 59
43 60
43 62
43 63
43 64
43 65
43 66
43 68
43 69
44 45
44 48
44 51
44 52
44 53
44 55
44 56
44 57
44 58
44 60
44 62
44 63
44 64
44 65
44 67
44 68
44 69
45 46
45 48
45 49
45 50
45 52
45 53
45 54
45 55
45 58
45 61
45 62
45 63
45 65
45 66
45 67
46 47
46 49
46 50
46 51
46 52
46 53
46 56
46 57
46 58
46 59
46 60
46 61
46 62
46 63
46 65
46 67
47 48
47 49
47 50
47 51
47 52
47 53
47 54
47 55
47 57
47 58
47 59
47 60
47 61
47 62
47 63
47 64
47 66
47 67
47 68
47 69
48 49
48 50
48 51
48 52
48 53
48 54
48 55
48 57
48 58
48 59
48 60
48 61
48 62
48 63
48 64
48 65
48 66
48 67
48 69
49 50
49 51
49 52
49 53
49 54
49 55
49 56
49 57
49 60
49 62
49 63
49 64
49 65
49 67
49 69
50 51
50 52
50 53
50 54
50 55
50 56
50 57
50 58
50 59
50 60
50 61
50 62
50 63
50 64
50 66
50 67
50 69
51 52
51 53
51 54
51 55
51 56
51 57
51 58
51 59
51 60
51 61
51 63
51 64
51 65
51 67
51 69
52 53
52 55
52 56
52 57
52 58
52 59
52 60
52 62
52 63
52 65
52 66
52 67
52 68
53 54
53 55
53 56
53 57
53 58
53 59
53 60
53 61
53 62
53 63
53 64
53 67
54 55
54 56
54 57
54 58
54 59
54 60
54 61
54 63
54 64
54 65
54 66
54 68
55 56
55 57
55 58
55 59
55 60
55 61
55 62
55 64
55 65
55 69
56 57
56 58
56 59
56 60
56 61
56 62
56 63
56 65
56 66
56 69
57 58
57 59
57 60
57 61
57 62
57 64
57 65
57 66
57 67
57 68
58 59
58 60
58 61
58 62
58 63
58 64
58 65
58 67
58 68
58 69
59 60
59 61
59 62
59 66
59 68
59 69
60 61
60 62
60 63
60 64
60 65
60 67
60 68
60 69
61 62
61 64
61 66
61 68
62 63
62 64
62 65
62 66
62 68
62 69
63 64
63 66
63 67
63 68
63 69
64 65
64 66
64 68
64 69
65 66
65 67
65 68
65 69
66 67
66 68
66 69
67 68
67 69
68 69
18 29 53 7 59 56 40 30 16 48
39 49 15 20 25 50 57 45 9 64
6 58 60 68 65 54 67 46 31 69
8 34 32 24 17 55 26 36 66 63
2 43 44 51 37 28 1 12 22 47
41 0 10 42 21 3 62 11 13 14
38 4 23 19 33 5 61 27 52 35
